38 703 5
1 2 291
1 3 794
1 4 629
1 5 850
1 6 806
1 7 882
1 8 973
1 9 991
1 10 437
1 11 1238
1 12 1187
1 13 903
1 14 508
1 15 903
1 16 1179
1 17 1197
1 18 1201
1 19 1205
1 20 902
1 21 760
1 22 1032
1 23 943
1 24 1106
1 25 999
1 26 1011
1 27 1527
1 28 1339
1 29 1059
1 30 1206
1 31 1794
1 32 1338
1 33 1714
1 34 1741
1 35 1498
1 36 1852
1 37 1625
1 38 1858
2 3 513
2 4 342
2 5 564
2 6 515
2 7 591
2 8 683
2 9 701
2 10 457
2 11 947
2 12 896
2 13 622
2 14 484
2 15 625
2 16 891
2 17 910
2 18 914
2 19 919
2 20 661
2 21 811
2 22 779
2 23 718
2 24 848
2 25 775
2 26 792
2 27 1253
2 28 1083
2 29 966
2 30 1046
2 31 1534
2 32 1193
2 33 1472
2 34 1496
2 35 1308
2 36 1599
2 37 1413
2 38 1649
3 4 175
3 5 69
3 6 167
3 7 182
3 8 300
3 9 312
3 10 883
3 11 492
3 12 464
3 13 371
3 14 866
3 15 391
3 16 503
3 17 522
3 18 531
3 19 536
3 20 592
3 21 1201
3 22 622
3 23 679
3 24 652
3 25 721
3 26 748
3 27 923
3 28 851
3 29 1154
3 30 1095
3 31 1246
3 32 1251
3 33 1252
3 34 1267
3 35 1252
3 36 1331
3 37 1288
3 38 1514
4 5 223
4 6 200
4 7 266
4 8 376
4 9 393
4 10 714
4 11 621
4 12 578
4 13 375
4 14 703
4 15 389
4 16 592
4 17 612
4 18 619
4 19 623
4 20 535
4 21 1040
4 22 604
4 23 617
4 24 653
4 25 668
4 26 693
4 27 993
4 28 875
4 29 1040
4 30 1021
4 31 1301
4 32 1178
4 33 1279
4 34 1298
4 35 1217
4 36 1379
4 37 1279
4 38 1512
5 6 139
5 7 127
5 8 239
5 9 250
5 10 912
5 11 423
5 12 395
5 13 329
5 14 890
5 15 351
5 16 436
5 17 455
5 18 464
5 19 470
5 20 564
5 21 1220
5 22 580
5 23 651
5 24 604
5 25 690
5 26 717
5 27 858
5 28 795
5 29 1145
5 30 1068
5 31 1182
5 32 1223
5 33 1194
5 34 1207
5 35 1210
5 36 1269
5 37 1239
5 38 1462
6 7 77
6 8 176
6 9 194
6 10 808
6 11 432
6 12 383
6 13 206
6 14 777
6 15 225
6 16 393
6 17 412
6 18 419
6 19 424
6 20 427
6 21 1100
6 22 455
6 23 514
6 24 489
6 25 555
6 26 582
6 27 796
6 28 697
6 29 1006
6 30 931
6 31 1110
6 32 1087
6 33 1101
6 34 1117
6 35 1085
6 36 1191
6 37 1125
6 38 1353
7 8 119
7 9 134
7 10 882
7 11 357
7 12 312
7 13 207
7 14 847
7 15 229
7 16 332
7 17 351
7 18 359
7 19 364
7 20 451
7 21 1166
7 22 456
7 23 537
7 24 477
7 25 573
7 26 600
7 27 746
7 28 670
7 29 1048
7 30 953
7 31 1066
7 32 1107
7 33 1070
7 34 1085
7 35 1085
7 36 1150
7 37 1112
7 38 1335
8 9 18
8 10 926
8 11 273
8 12 215
8 13 154
8 14 882
8 15 176
8 16 216
8 17 236
8 18 243
8 19 248
8 20 404
8 21 1186
8 22 375
8 23 485
8 24 382
8 25 511
8 26 538
8 27 627
8 28 558
8 29 1016
8 30 890
8 31 947
8 32 1041
8 33 955
8 34 969
8 35 994
8 36 1032
8 37 1009
8 38 1228
9 10 943
9 11 255
9 12 197
9 13 165
9 14 898
9 15 186
9 16 199
9 17 219
9 18 226
9 19 231
9 20 412
9 21 1200
9 22 376
9 23 491
9 24 379
9 25 516
9 26 543
9 27 612
9 28 550
9 29 1025
9 30 894
9 31 933
9 32 1044
9 33 945
9 34 958
9 35 992
9 36 1019
9 37 1003
9 38 1221
10 11 1196
10 12 1131
10 13 801
10 14 88
10 15 789
10 16 1087
10 17 1102
10 18 1102
10 19 1105
10 20 678
10 21 355
10 22 819
10 23 681
10 24 897
10 25 726
10 26 729
10 27 1340
10 28 1107
10 29 635
10 30 826
10 31 1551
10 32 940
10 33 1432
10 34 1462
10 35 1141
10 36 1591
10 37 1292
10 38 1515
11 12 70
11 13 400
11 14 1147
11 15 415
11 16 159
11 17 160
11 18 170
11 19 173
11 20 611
11 21 1439
11 22 526
11 23 676
11 24 491
11 25 683
11 26 707
11 27 503
11 28 560
11 29 1214
11 30 1037
11 31 832
11 32 1173
11 33 900
11 34 904
11 35 1060
11 36 929
11 37 1025
11 38 1216
12 13 332
12 14 1081
12 15 347
12 16 98
12 17 105
12 18 116
12 19 120
12 20 541
12 21 1371
12 22 458
12 23 606
12 24 426
12 25 614
12 26 639
12 27 489
12 28 513
12 29 1145
12 30 972
12 31 819
12 32 1110
12 33 871
12 34 878
12 35 1007
12 36 913
12 37 980
12 38 1179
13 14 749
13 15 23
13 16 289
13 17 305
13 18 307
13 19 310
13 20 252
13 21 1041
13 22 251
13 23 336
13 24 284
13 25 368
13 26 395
13 27 633
13 28 500
13 29 862
13 30 749
13 31 930
13 32 902
13 33 904
13 34 923
13 35 882
13 36 1005
13 37 919
13 38 1148
14 15 736
14 16 1032
14 17 1046
14 18 1045
14 19 1047
14 20 607
14 21 339
14 22 748
14 23 604
14 24 825
14 25 647
14 26 648
14 27 1267
14 28 1029
14 29 554
14 30 738
14 31 1470
14 32 854
14 33 1347
14 34 1378
14 35 1053
14 36 1508
14 37 1205
14 38 1427
15 16 298
15 17 314
15 18 315
15 19 318
15 20 229
15 21 1024
15 22 231
15 23 312
15 24 266
15 25 344
15 26 372
15 27 629
15 28 487
15 29 840
15 30 725
15 31 921
15 32 879
15 33 891
15 34 910
15 35 861
15 36 995
15 37 901
15 38 1130
16 17 19
16 18 28
16 19 33
16 20 466
16 21 1309
16 22 370
16 23 525
16 24 332
16 25 528
16 26 551
16 27 423
16 28 418
16 29 1061
16 30 878
16 31 750
16 32 1014
16 33 787
16 34 796
16 35 909
16 36 841
16 37 886
16 38 1088
17 18 12
17 19 17
17 20 476
17 21 1321
17 22 375
17 23 532
17 24 334
17 25 533
17 26 556
17 27 405
17 28 409
17 29 1066
17 30 879
17 31 733
17 32 1014
17 33 773
17 34 781
17 35 903
17 36 824
17 37 876
17 38 1076
18 19 5
18 20 471
18 21 1317
18 22 368
18 23 526
18 24 325
18 25 526
18 26 549
18 27 395
18 28 397
18 29 1059
18 30 870
18 31 722
18 32 1004
18 33 761
18 34 769
18 35 892
18 36 813
18 37 864
18 38 1064
19 20 472
19 21 1319
19 22 368
19 23 526
19 24 324
19 25 526
19 26 548
19 27 389
19 28 393
19 29 1059
19 30 868
19 31 717
19 32 1002
19 33 756
19 34 764
19 35 889
19 36 808
19 37 860
19 38 1060
20 21 851
20 22 141
20 23 87
20 24 219
20 25 133
20 26 159
20 27 663
20 28 442
20 29 614
20 30 504
20 31 896
20 32 660
20 33 814
20 34 840
20 35 683
20 36 951
20 37 760
20 38 997
21 22 979
21 23 818
21 24 1051
21 25 844
21 26 835
21 27 1475
21 28 1217
21 29 496
21 30 774
21 31 1623
21 32 835
21 33 1467
21 34 1500
21 35 1094
21 36 1642
21 37 1273
21 38 1469
22 23 164
22 24 78
22 25 158
22 26 181
22 27 521
22 28 307
22 29 691
22 30 522
22 31 762
22 32 668
22 33 695
22 34 718
22 35 630
22 36 821
22 37 675
22 38 908
23 24 233
23 25 57
23 26 77
23 27 667
23 28 426
23 29 540
23 30 417
23 31 873
23 32 573
23 33 773
23 34 800
23 35 605
23 36 920
23 37 695
23 38 932
24 25 214
24 26 232
24 27 443
24 28 235
24 29 741
24 30 546
24 31 688
24 32 684
24 33 632
24 34 653
24 35 612
24 36 751
24 37 636
24 38 864
25 26 27
25 27 633
25 28 383
25 29 533
25 30 381
25 31 825
25 32 534
25 33 719
25 34 747
25 35 551
25 36 869
25 37 639
25 38 875
26 27 641
26 28 387
26 29 511
26 30 354
26 31 823
26 32 507
26 33 711
26 34 739
26 35 528
26 36 864
26 37 621
26 38 857
27 28 265
27 29 1099
27 30 834
27 31 330
27 32 921
27 33 415
27 34 413
27 35 709
27 36 426
27 37 605
27 38 752
28 29 835
28 30 576
28 31 455
28 32 677
28 33 404
28 34 423
28 35 509
28 36 516
28 37 467
28 38 674
29 30 296
29 31 1182
29 32 339
29 33 1006
29 34 1039
29 35 604
29 36 1186
29 37 789
29 38 974
30 31 889
30 32 157
30 33 710
30 34 743
30 35 323
30 36 889
30 37 499
30 38 701
31 32 922
31 33 211
31 34 183
31 35 650
31 36 102
31 37 479
31 38 524
32 33 725
32 34 758
32 35 287
32 36 906
32 37 478
32 38 641
33 34 34
33 35 445
33 36 181
33 37 269
33 38 342
34 35 478
34 36 147
34 37 299
34 38 355
35 36 623
35 37 191
35 38 378
36 37 441
36 38 444
37 38 236
